words_easy_train/words_482_SAT.qaiger
aag 31 16 0 1 15
16
32
26
22
24
6
12
28
2
18
4
10
30
8
20
14
62
34 33 4
36 32 5
38 37 35
40 29 23
42 27 21
44 42 25
46 44 40
48 30 2
50 48 47
52 31 3
54 52 46
56 55 51
58 56 38
60 57 39
62 61 59
i0 1 x2[7]
i1 2 y1[7]
i2 2 y1[4]
i3 2 y1[2]
i4 2 y1[3]
i5 1 x2[2]
i6 1 x2[5]
i7 2 y1[5]
i8 1 x2[0]
i9 2 y1[0]
i10 1 x2[1]
i11 1 x2[4]
i12 2 y1[6]
i13 1 x2[3]
i14 2 y1[1]
i15 1 x2[6]
o0 bv[0]
c
simplified
  <=
    add
      << 6
        1 x2
      2 y1
    1
