words_easy_train/words_482_SAT.qaiger.qdimacs
p cnf 31 46
a 1 2 3 4 5 6 7 8 0
e 9 10 11 12 13 14 15 16 17 18 19 20 21 22 23 24 25 26 27 28 29 30 31 0
16 -2 17 0
-16 -17 0
2 -17 0
-16 2 18 0
16 -18 0
-2 -18 0
18 17 19 0
-18 -19 0
-17 -19 0
14 11 20 0
-14 -20 0
-11 -20 0
13 10 21 0
-13 -21 0
-10 -21 0
-21 12 22 0
21 -22 0
-12 -22 0
-22 -20 23 0
22 -23 0
20 -23 0
-15 -1 24 0
15 -24 0
1 -24 0
-24 23 25 0
24 -25 0
-23 -25 0
15 1 26 0
-15 -26 0
-1 -26 0
-26 -23 27 0
26 -27 0
23 -27 0
27 25 28 0
-27 -28 0
-25 -28 0
-28 -19 29 0
28 -29 0
19 -29 0
28 19 30 0
-28 -30 0
-19 -30 0
30 29 31 0
-30 -31 0
-29 -31 0
31 0
